CMD:
./solvers/bin/cadical --plain --no-reduce -t 1600 ./data/cnfs//zipcpu-zipmmu-p26/zipcpu-zipmmu-p26.25.cnf

c --- [ banner ] -------------------------------------------------------------
c 
c CaDiCaL SAT Solver
c Copyright (c) 2016-2024
c A. Biere, M. Fleury, N. Froleyks, K. Fazekas, F. Pollitt, T. Faller
c JKU Linz, University of Freiburg, TU Wien
c 
c Version 2.1.3 5296d3d2a9bf48c154ab2acb5e44625776d821bf
c g++ (Gentoo 12.3.1_p20230526 p2) 12.3.1 20230526 -Wall -Wextra -O3 -DNDEBUG
c Sat Aug 9 07:26:21 PDT 2025 Linux cedar2.int.cedar.computecanada.ca 5.14.0-362.24.2.el9_3.x86_64 x86_64
c 
c --- [ limit ] --------------------------------------------------------------
c 
c setting time limit to 1600 seconds real time (due to '-t 1600')
c 
c --- [ parsing input ] ------------------------------------------------------
c 
c reading DIMACS file from './data/cnfs//zipcpu-zipmmu-p26/zipcpu-zipmmu-p26.25.cnf'
c opening file to read './data/cnfs//zipcpu-zipmmu-p26/zipcpu-zipmmu-p26.25.cnf'
c found 'p cnf 123964 361769' header
c parsed 361769 clauses in 0.07 seconds process time
c 
c --- [ options ] ------------------------------------------------------------
c 
c   --compact=false                (different from default 'true')
c   --decompose=false              (different from default 'true')
c   --deduplicate=false            (different from default 'true')
c   --elim=false                   (different from default 'true')
c   --probe=false                  (different from default 'true')
c   --reduce=false                 (different from default 'true')
c   --subsume=false                (different from default 'true')
c   --ternary=false                (different from default 'true')
c   --transred=false               (different from default 'true')
c   --vivify=false                 (different from default 'true')
c 
c --- [ solving ] ------------------------------------------------------------
c 
c time measured in process time since initialization
c 
c  seconds  reductions  redundant  irredundant
c         MB    restarts       trail       variables
c          level   conflicts       glue          remaining
c 
c *  0.07 58  0 0   0    0    0  0% 0 353716 118320 95%
c {  0.09 60  0 0   0    0    0  0% 0 353716 118320 95%
c i  0.10 60 41 0   0    2    1  5% 0 353716 118319 95%
c i  0.14 61 200 0  28  646  538 15% 5 353716 118313 95%
c i  0.15 61 173 0  34  759  641 14% 5 353716 118305 95%
c i  0.16 61 157 0  35  843  714 14% 5 353716 118296 95%
c i  0.16 61 151 0  35  897  766 14% 5 353716 118244 95%
c i  0.16 61 148 0  35  921  786 14% 5 353716 118235 95%
c }  0.16 61 140 0  35 1002  863 14% 5 353716 118235 95%
c [  0.16 61  0 0  35 1002  863  0% 0 353716 118235 95%
c O  0.19 61 2716 0  35 1003  864 94% 2 353716 118235 95%
c i  0.33 61 1840 0  36 2239 2042 67% 8 353716 118181 95%
c ]  0.41 62 1150 0  36 3002 2769 46% 8 353716 118181 95%
c {  0.41 62 140 0  36 3002 2769 14% 5 353716 118181 95%
c F  0.41 62 140 0  36 3004 2770 14% 5 353716 118181 95%
c i  0.41 62 140 0  36 3004 2770 14% 5 353716 118168 95%
c i  0.41 62 139 0  36 3005 2770 14% 5 353716 118138 95%
c i  0.43 62 128 0  46 3134 2883 14% 5 353716 118130 95%
c i  0.43 62 128 0  47 3137 2884 14% 5 353716 118115 95%
c i  0.43 62 125 0  49 3175 2920 14% 5 353716 117782 95%
c 
c  seconds   reductions  redundant  irredundant
c         MB     restarts       trail       variables
c           level   conflicts       glue          remaining
c 
c i  0.47 62 100 0  99 3567 3270 14% 5 353716 117190 95%
c i  0.53 62 76 0 169 4319 3967 14% 5 353716 117171 95%
c i  0.55 62 73 0 183 4479 4119 14% 5 353716 117154 95%
c i  0.55 62 73 0 184 4480 4119 14% 5 353716 117145 94%
c i  0.55 62 71 0 191 4568 4165 14% 5 353716 116824 94%
c i  0.55 62 70 0 191 4634 4222 13% 5 353716 116823 94%
c i  0.56 62 69 0 191 4655 4241 13% 5 353716 116817 94%
c i  0.56 62 68 0 192 4740 4319 13% 5 353716 116498 94%
c i  0.56 62 68 0 193 4742 4320 13% 5 353716 116109 94%
c i  0.56 62 68 0 193 4754 4331 13% 5 353716 116108 94%
c i  0.59 62 62 0 213 5197 4737 13% 5 353716 116097 94%
c i  0.62 62 56 0 236 5664 5152 13% 5 353716 116082 94%
c i  0.62 62 56 0 237 5665 5152 13% 5 353716 116073 94%
c #  0.65 62 54 0 256 6007 5469 13% 5 353716 116073 94%
c i  0.68 62 52 0 279 6335 5769 13% 5 353716 116067 94%
c i  0.68 62 51 0 279 6379 5797 13% 5 353716 116057 94%
c }  0.75 63 48 0 351 7003 6370 13% 5 353716 116057 94%
c [  0.75 63 1150 0 351 7003 6370 46% 8 353716 116057 94%
c I  0.99 63 471 0 353 10010 9199 26% 10 353716 116057 94%
c i  1.05 63 396 0 354 10949 9835 23% 10 353716 115471 93%
c 
c  seconds   reductions    redundant   irredundant
c         MB     restarts         trail        variables
c           level    conflicts        glue           remaining
c 
c ]  1.42 64 241 0 356 15003 13424 19% 10 353716 115471 93%
c {  1.42 64 48 0 356 15003 13424 13% 5 353716 115471 93%
c B  1.42 64 48 0 358 15012 13432 13% 5 353716 115471 93%
c i  1.51 65 44 0 518 15704 13981 13% 6 353716 115140 93%
c i  1.61 65 39 0 691 16685 14698 13% 6 353716 114815 93%
c i  1.65 65 38 0 724 17025 15019 12% 6 353716 114748 93%
c i  1.66 65 38 0 727 17035 15027 12% 6 353716 114169 92%
c i  1.66 65 38 0 729 17143 15129 12% 6 353716 114121 92%
c i  1.68 65 38 0 750 17226 15206 12% 6 353716 113517 92%
c i  1.68 65 38 0 750 17227 15206 12% 6 353716 113516 92%
c i  1.68 65 38 0 760 17267 15245 12% 6 353716 113476 92%
c i  1.80 66 34 0 855 18668 16539 12% 6 353716 113465 92%
c i  1.91 66 32 0 1004 19600 17381 12% 6 353716 113461 92%
c i  1.91 66 32 0 1005 19604 17382 12% 6 353716 113453 92%
c i  1.97 66 31 0 1105 20025 17769 12% 6 353716 113427 91%
c W  2.24 67 30 0 1277 21019 15334 12% 7 318554 113427 91%
c i  2.40 67 28 0 1404 22540 16697 12% 7 318554 113420 91%
c i  2.46 67 27 0 1472 23119 17220 12% 7 318554 113384 91%
c i  2.49 67 26 0 1472 23502 17519 12% 7 318554 113324 91%
c i  2.51 67 26 0 1502 23654 17644 12% 7 318554 113322 91%
c 
c  seconds  reductions     redundant  irredundant
c         MB    restarts          trail       variables
c          level     conflicts        glue          remaining
c 
c i  2.56 67 26 0 1502 24162 18038 12% 7 318554 113302 91%
c i  2.58 67 25 0 1505 24408 18211 12% 7 318554 113291 91%
c i  2.58 67 25 0 1505 24428 18220 12% 7 318554 113132 91%
c i  2.60 67 25 0 1505 24558 18311 12% 7 318554 113087 91%
c i  2.60 67 25 0 1505 24560 18312 12% 7 318554 113012 91%
c }  2.61 67 25 0 1505 24670 18375 12% 6 318554 110702 89%
c 0  2.61 67 25 0 1505 24670 18375 12% 6 318554 110702 89%
c 
c --- [ result ] -------------------------------------------------------------
c 
s UNSATISFIABLE
c 
c --- [ run-time profiling ] -------------------------------------------------
c 
c process time taken by individual solving procedures
c (percentage relative to process time for solving)
c 
c         2.54  100.00% search
c         1.46   57.43% unstable
c         0.92   36.05% stable
c         0.14    5.43% walk
c         0.07    2.63% parse
c         0.03    1.08% lucky
c         0.00    0.00% simplify
c   =================================
c         2.54   97.42% solve
c 
c last line shows process time for solving
c (percentage relative to total process time)
c 
c --- [ statistics ] ---------------------------------------------------------
c 
c chronological:              6691        27.12 %  of conflicts
c conflicts:                 24670      9706.69    per second
c decisions:                 71555     28154.11    per second
c fixed:                     13167        10.62 %  of all variables
c learned:                   23887        96.83 %  per conflict
c learned_lits:             907694       100.00 %  learned literals
c minimized:                     0         0.00 %  learned literals
c shrunken:                 201928        22.25 %  learned literals
c minishrunken:             191762        21.13 %  learned literals
c otfs:                        102         0.41 %  of conflict
c propagations:           31421976        12.36 M  per second
c rephased:                      6      4111.67    interval
c restarts:                   1505        16.39    interval
c stabilizing:                   2        40.54 %  of conflicts
c subsumed:                   2154         0.57 %  of all clauses
c strengthened:                102         0.03 %  of all clauses
c walked:                        1     24670.00    interval
c 
c seconds are measured in process time for solving
c 
c --- [ resources ] ----------------------------------------------------------
c 
c total process time since initialization:         2.61    seconds
c total real time since initialization:            2.63    seconds
c maximum resident set size of process:           67.12    MB
c 
c --- [ shutting down ] ------------------------------------------------------
c 
c exit 20
